com.javasolver.samples/results/com.javasolver.samples.BlendingProblem.sol
      0 Vi0                2400        -3.5527137e-015
      1 Vi1                2100        -3.5527137e-015
      2 Vi2                 500        -3.5527137e-015
      3 Vi3                 800         3.5527137e-015
      4 Vi4                2700        -3.5527137e-015
      5 Vi5                 500         3.5527137e-015
      6 Vi6                 800         3.5527137e-015
      7 Vi7                4200                      0
      8 Vi8                   0         1.7763568e-014
      9 Vi9                 100         -1.110223e-016
     10 Vi10                700         -1.110223e-016
     11 Vi11                  0                   -200
     12 Vi12             323200                      0
